/* Variáveis de Decisão

x1: Número de pisos de Planta 1
x2: Número de pisos de Planta 2

*/

/*Função objetivo*/

min: 150000 x1 + 200000 x2;

/* Restrições */

0 <= x1;
0 <= x2;
5 <= x1 + 4 x2;
8 <= 3 x1 + 2 x2;


int x1;
int x2;